200,161
463,248
639,364
708,353
695,318
737,51
875,265
769,285
769,392
761,446
893,618
756,880
847,919
1020,745
1011,406
1095,471
705,389
646,454
628,433
624,424
664,430
536,301
453,332
425,489
267,471
504,378
414,542
417,770
681,706
586,593
871,32
602,-97
586,219
559,166
524,-79
515,-107
504,59
281,202
